100 500 200 500 10 100
92 490
45 409
79 202
75 254
87 291
26 478
77 455
70 327
77 464
28 444
48 286
31 458
46 246
63 239
22 287
100 416
69 343
76 290
96 475
31 282
97 230
36 326
23 212
56 355
43 481
41 332
22 305
77 250
86 442
17 458
99 244
27 304
13 446
67 379
96 436
44 332
51 469
45 349
46 308
71 407
81 450
78 304
81 225
68 405
47 394
43 496
45 235
66 472
69 341
64 299
74 259
35 442
84 338
96 407
23 493
63 485
84 249
50 496
47 392
46 242
45 211
83 421
55 485
99 427
33 491
57 301
59 406
75 476
52 281
25 440
15 445
22 464
71 461
70 217
32 257
55 387
11 445
64 463
92 449
87 203
23 313
21 387
25 295
31 211
35 494
50 348
78 272
83 329
24 469
19 284
20 304
30 442
72 477
31 478
100 492
42 263
50 484
65 271
56 261
13 353
